certificates/rado_a11_c87_N20.cnf
c Rad2 upper bound instance: x1 + 11*x2 - x3 = 87, interval [1,20]
p cnf 20 72
1 2 8 0
-1 -2 -8 0
1 9 13 0
-1 -9 -13 0
2 3 8 0
-2 -3 -8 0
2 9 14 0
-2 -9 -14 0
3 4 8 0
-3 -4 -8 0
3 9 15 0
-3 -9 -15 0
4 5 8 0
-4 -5 -8 0
4 9 16 0
-4 -9 -16 0
5 6 8 0
-5 -6 -8 0
5 9 17 0
-5 -9 -17 0
6 7 8 0
-6 -7 -8 0
6 9 18 0
-6 -9 -18 0
7 8 0
-7 -8 0
7 9 19 0
-7 -9 -19 0
8 9 0
-8 -9 0
8 9 20 0
-8 -9 -20 0
8 9 10 0
-8 -9 -10 0
8 10 11 0
-8 -10 -11 0
1 7 11 0
-1 -7 -11 0
8 11 12 0
-8 -11 -12 0
2 7 12 0
-2 -7 -12 0
8 12 13 0
-8 -12 -13 0
3 7 13 0
-3 -7 -13 0
8 13 14 0
-8 -13 -14 0
4 7 14 0
-4 -7 -14 0
8 14 15 0
-8 -14 -15 0
5 7 15 0
-5 -7 -15 0
8 15 16 0
-8 -15 -16 0
6 7 16 0
-6 -7 -16 0
8 16 17 0
-8 -16 -17 0
7 17 0
-7 -17 0
8 17 18 0
-8 -17 -18 0
7 8 18 0
-7 -8 -18 0
8 18 19 0
-8 -18 -19 0
8 19 20 0
-8 -19 -20 0
7 10 20 0
-7 -10 -20 0
