certificates/rado_a11_c87_N20.drat
-19 -20 0
d -19 -8 -20 0
-9 -20 0
9 19 0
d 9 7 19 0
-20 0
19 0
-9 0
8 0
-7 0
-18 0
17 0
10 0
6 0
-16 0
-11 0
-5 0
4 0
1 0
15 0
-3 0
-2 0
-14 0
13 0
12 0
0
